PROBLEM NAME: small_3_BoundedStronglyCorrelated_n14_m39_c10
KNAPSACK DATA TYPE:
DIMENSION: 14
NUMBER OF ITEMS: 39
CAPACITY OF KNAPSACK: 19071
MIN SPEED: 0.1
MAX SPEED: 1.0
RENTING RATIO: 1.0
EDGE_WEIGHT_TYPE: CEIL_2D
NODE_COORD_SECTION	(INDEX, X, Y): 
1	305	896
2	7	680
3	316	984
4	310	330
5	860	78
6	126	277
7	755	786
8	945	141
9	351	198
10	208	702
11	504	417
12	604	131
13	839	506
14	155	286
ITEMS SECTION	(INDEX, PROFIT, WEIGHT, ASSIGNED NODE NUMBER): 
1	621	521	2
2	655	555	2
3	1042	942	2
4	259	159	3
5	884	784	3
6	471	371	3
7	691	591	4
8	1064	964	4
9	184	84	4
10	455	355	5
11	1087	987	5
12	903	803	5
13	1072	972	6
14	490	390	6
15	497	397	6
16	525	425	7
17	843	743	7
18	1047	947	7
19	692	592	8
20	572	472	8
21	643	543	8
22	630	530	9
23	295	195	9
24	633	533	9
25	581	481	10
26	778	678	10
27	968	868	10
28	811	711	11
29	979	879	11
30	330	230	11
31	213	113	12
32	766	666	12
33	831	731	12
34	144	44	13
35	112	12	13
36	713	613	13
37	260	160	14
38	599	499	14
39	539	439	14
